p cnf 91 377
10 -21 22 69 -72 -77 88 0
3 4 -50 -51 68 -91 0
4 19 -50 -51 68 -91 0
7 9 40 45 46 -87 0
10 20 22 -69 -72 88 0
12 -14 57 58 78 79 0
20 -38 53 -54 71 -72 0
-42 45 46 60 83 -87 0
1 2 -32 59 -62 0
-2 -5 -6 37 -65 0
3 4 -50 51 -91 0
-4 52 78 82 84 0
7 8 9 -47 -48 0
7 8 9 -48 55 0
10 -27 -28 34 57 0
12 13 57 78 79 0
13 -31 57 -78 -79 0
-14 -15 -31 58 -80 0
36 37 62 -63 82 0
7 46 -48 55 64 0
1 2 -32 -74 0
1 42 -60 -87 0
3 13 49 89 0
-3 -16 -19 67 0
-3 -19 -23 67 0
-3 -23 67 -68 0
4 23 -51 -91 0
4 -61 78 84 0
-4 52 78 -84 0
8 9 -47 -48 0
-9 -40 43 87 0
10 11 26 -28 0
-13 -49 -68 -91 0
-13 -49 90 -91 0
-19 -23 25 36 0
-19 -24 -25 -59 0
-19 -40 -43 -87 0
-19 85 -86 91 0
-21 -69 70 -88 0
24 -32 -33 -61 0
25 32 33 56 0
29 -30 -31 58 0
38 54 70 72 0
52 -63 -78 -84 0
-61 65 -74 82 0
-31 57 -73 78 -79 0
1 -42 60 70 0
2 3 59 -62 0
-2 -5 74 82 0
-4 -61 82 -84 0
7 -47 -48 64 0
-8 -42 45 -60 0
10 -27 -28 -56 0
11 12 26 -28 0
11 -31 -76 -80 0
12 13 78 -79 0
12 -19 -78 -79 0
-14 57 76 -80 0
-17 22 -41 -72 0
-18 -23 -38 -54 0
-19 -23 86 -89 0
-19 26 -27 -59 0
20 21 22 88 0
21 22 -72 -77 0
-23 25 65 74 0
40 45 48 -55 0
41 53 -54 71 0
49 -50 68 91 0
-1 23 -36 0
-1 41 -70 0
-1 -83 -88 0
2 65 -74 0
-2 -6 61 0
-2 35 -65 0
-3 16 -68 0
-3 -16 -51 0
-3 -16 67 0
4 23 41 0
4 -67 89 0
-5 -63 78 0
6 35 -36 0
-6 23 -32 0
7 8 -47 0
-7 -8 -42 0
-7 -8 -46 0
-7 -42 83 0
8 -10 -70 0
8 55 -60 0
-8 46 -55 0
-8 70 -88 0
10 11 14 0
-10 -26 28 0
-10 -28 -59 0
11 12 34 0
11 -23 -34 0
-11 -58 -76 0
12 29 58 0
13 51 85 0
13 67 85 0
13 67 -90 0
-13 66 89 0
-13 68 -85 0
-13 90 -91 0
14 -19 -79 0
15 -29 30 0
16 32 -56 0
-16 -51 -89 0
-16 67 -89 0
17 18 -71 0
17 19 39 0
17 22 -44 0
-17 -18 71 0
-17 -39 -44 0
-17 44 77 0
18 41 48 0
18 42 46 0
-18 -23 -60 0
-18 -69 91 0
19 27 59 0
19 -30 -33 0
19 -36 74 0
19 47 64 0
19 51 85 0
19 -68 -91 0
-19 -26 57 0
-19 -32 -34 0
-19 -48 -55 0
-19 81 85 0
20 -54 -70 0
-22 -41 70 0
-22 53 -60 0
23 -33 56 0
23 38 40 0
23 51 -91 0
-23 -56 -88 0
-23 -68 81 0
-23 79 -84 0
-23 -86 89 0
24 35 59 0
24 -35 -59 0
-25 -33 -34 0
-25 -35 36 0
-26 -28 -31 0
29 30 33 0
29 30 73 0
29 -30 73 0
-29 30 -73 0
30 36 -57 0
-30 57 -73 0
-31 -73 78 0
-32 35 62 0
-32 -56 61 0
-36 37 63 0
-36 -37 -63 0
45 55 60 0
46 48 55 0
-46 47 -64 0
-46 -47 -64 0
-47 -66 -89 0
-49 -51 -89 0
50 66 -89 0
-50 -68 -89 0
51 -81 -85 0
-54 -70 72 0
56 59 61 0
56 -61 -62 0
65 76 80 0
66 86 -90 0
-66 -67 -86 0
67 -68 85 0
68 -81 -85 0
-68 81 85 0
1 8 0
1 10 0
1 -23 0
1 24 0
1 -36 0
1 45 0
1 -62 0
-1 -2 0
-1 -24 0
-1 -29 0
-1 -59 0
-1 84 0
2 3 0
2 6 0
2 56 0
2 62 0
2 65 0
2 74 0
-2 -26 0
3 -19 0
3 32 0
3 50 0
3 -51 0
3 -62 0
-3 -16 0
-3 -51 0
-3 68 0
-3 -68 0
4 16 0
4 -16 0
4 17 0
4 -52 0
4 61 0
4 -61 0
4 -68 0
4 -82 0
4 -84 0
-4 84 0
-4 91 0
5 7 0
5 10 0
5 -52 0
5 61 0
5 63 0
5 -78 0
5 -84 0
-5 62 0
-5 75 0
-5 -78 0
6 43 0
6 -62 0
6 63 0
6 -63 0
6 -82 0
-6 36 0
-6 52 0
-6 -65 0
7 42 0
7 60 0
-7 -55 0
-7 83 0
8 -45 0
8 -46 0
8 -67 0
8 -88 0
-8 -9 0
-8 60 0
-8 -64 0
-8 88 0
9 -47 0
9 55 0
-9 -40 0
-9 -45 0
-9 -46 0
-9 87 0
10 -38 0
10 39 0
10 -57 0
10 -70 0
10 -77 0
10 83 0
-10 -11 0
-10 -12 0
-10 27 0
-10 -34 0
-10 56 0
-10 -83 0
11 -12 0
11 13 0
11 15 0
11 34 0
-11 -14 0
-11 -15 0
-11 31 0
-11 -57 0
-11 76 0
12 -73 0
12 -86 0
-12 -13 0
-12 31 0
-12 -33 0
-12 -57 0
-12 -58 0
-12 73 0
-12 79 0
13 69 0
13 79 0
13 84 0
13 86 0
13 91 0
-13 28 0
-13 -67 0
14 31 0
14 -57 0
14 -58 0
14 78 0
14 79 0
-14 -73 0
15 57 0
15 -57 0
15 -58 0
-15 29 0
16 50 0
-16 67 0
-16 -85 0
17 40 0
17 44 0
17 68 0
-17 -40 0
-17 -48 0
-17 -87 0
18 64 0
18 69 0
-18 -41 0
-18 -43 0
-18 -55 0
-18 64 0
-18 81 0
19 28 0
19 38 0
19 41 0
19 42 0
19 56 0
19 69 0
19 75 0
19 -75 0
19 -76 0
19 -80 0
-19 -38 0
-19 -44 0
-19 45 0
-19 -47 0
-19 -49 0
-19 57 0
-19 71 0
-19 80 0
-19 81 0
-19 84 0
-19 -84 0
-19 91 0
20 21 0
20 42 0
20 69 0
20 -70 0
-20 21 0
-20 -21 0
-20 -22 0
-20 69 0
-20 72 0
-20 77 0
-20 83 0
21 -42 0
21 -72 0
21 88 0
21 -88 0
-21 -41 0
22 38 0
22 53 0
22 -53 0
22 71 0
-22 55 0
-22 -88 0
23 28 0
23 -30 0
23 42 0
23 47 0
23 48 0
23 -50 0
23 59 0
23 60 0
23 -65 0
23 68 0
23 69 0
23 -71 0
23 76 0
23 -76 0
23 -80 0
-23 -26 0
-23 -27 0
-23 30 0
-23 -40 0
-23 -44 0
-23 -53 0
-23 80 0
-23 81 0
